<number of tasks>
11

<cycle time>
62

<task times>
1 4
2 38
3 45
4 12
5 10
6 8
7 12
8 10
9 2
10 10
11 34

<precedence relations>
1,4
2,4
2,5
3,11
4,6
5,7
6,8
7,9
8,10
9,10
10,11

<setup times forward>
1,2:3
1,3:1
1,4:1
1,5:1
1,9:2
2,1:3
2,3:4
2,4:2
2,5:2
3,1:1
3,2:4
3,4:2
3,5:2
3,6:1
3,7:1
3,8:2
3,9:3
3,11:2
4,3:2
4,6:3
4,7:1
4,9:1
5,1:1
5,3:2
5,6:3
5,7:1
5,8:4
6,3:1
6,5:3
6,7:2
6,8:1
6,9:4
7,3:1
7,4:1
7,6:2
7,8:3
7,9:2
8,3:2
8,5:4
8,7:3
8,9:5
8,10:2
9,1:2
9,3:3
9,4:1
9,6:4
9,8:5
9,10:3
10,11:2

<setup times backward>
1,1:7
1,2:4
1,3:8
1,5:6
1,7:7
1,9:5
2,1:10
2,2:7
2,3:11
3,1:6
3,2:3
3,3:7
3,4:5
3,5:5
3,6:8
3,7:6
3,8:9
3,9:4
3,10:7
4,1:8
4,2:5
4,3:9
4,4:7
4,5:7
4,7:8
4,9:6
5,1:8
5,2:5
5,3:9
5,4:7
5,5:7
5,6:10
5,8:11
6,1:5
6,2:2
6,3:6
6,4:4
6,5:4
6,6:7
6,7:5
6,9:3
7,1:7
7,2:4
7,3:8
7,4:6
7,5:6
7,6:9
7,7:7
7,8:10
8,1:4
8,2:1
8,3:5
8,4:3
8,5:3
8,6:6
8,7:4
8,8:7
8,9:2
9,1:9
9,2:6
9,3:10
9,4:8
9,5:8
9,6:11
9,7:9
9,8:12
9,9:7
10,1:6
10,2:3
10,3:7
10,4:5
10,5:5
10,6:8
10,7:6
10,8:9
10,9:4
10,10:7
11,1:4
11,2:1
11,3:5
11,4:3
11,5:3
11,6:6
11,7:4
11,8:7
11,9:2
11,10:5
11,11:7

<end>

<optimal SALBP-1 value>
3


<rand seed>
467321153

<Lower Bounds>
Lm1=3
Lms1=3
Lm2=3
Lm3=2
Lm4=4
Best=4

<Optimal Stations (Iterations: 10)>
4
